c A SAT instance generated from a 2-CNF formula that had 61 clauses and 6 variables
p cnf 6 61
-1 6 0
-2 5 0
-4 -2 0
3 4 0
4 -6 0
3 1 0
-4 1 0
6 -2 0
-5 -2 0
-6 -3 0
6 -3 0
2 6 0
-2 -3 0
6 -5 0
1 -5 0
-4 1 0
3 1 0
3 2 0
-3 2 0
4 2 0
6 2 0
-1 5 0
5 2 0
-6 5 0
2 -6 0
4 -3 0
-2 3 0
4 -2 0
4 -2 0
5 -1 0
-1 -6 0
-3 2 0
-6 3 0
-2 -3 0
3 2 0
5 1 0
1 -6 0
-4 -6 0
-1 -5 0
-3 -1 0
1 6 0
-3 -2 0
-6 -2 0
2 3 0
4 2 0
-1 -3 0
-4 1 0
3 2 0
5 -6 0
4 6 0
4 2 0
-3 -4 0
6 2 0
2 3 0
-1 -4 0
-5 -4 0
-2 -6 0
-6 -5 0
-4 1 0
-6 -3 0
3 1 0
